10 10 3

0 489 328 402 247 254 424 433 283 346 
428 0 153 218 388 150 297 79 457 70 
344 128 0 111 200 450 309 500 399 134 
86 210 287 0 130 198 322 239 395 75 
162 83 308 215 0 461 168 139 348 268 
142 134 224 162 428 0 58 223 128 459 
482 334 357 115 371 66 0 108 451 214 
136 396 315 162 58 348 420 0 430 309 
294 68 363 62 367 447 443 479 0 131 
452 408 416 166 145 249 473 417 119 0 

78.5 0 7
78.5 1 8
78.5 2 5
78.5 3 4
78.5 4 8
78.5 5 4
78.5 6 0
78.5 7 8
78.5 8 4
78.5 9 4

